c nIsolatedPIs 4
c maxPI 131
p cnf 749 1855
c gate 132 -67 126 0
-67 -132 0
126 -132 0
67 -126 132 0
c gate 133 -69 -126 0
-69 -133 0
-126 -133 0
69 126 133 0
c gate 134 125 -133 0
125 -134 0
-133 -134 0
-125 133 134 0
c gate 135 -132 134 0
-132 -135 0
134 -135 0
132 -134 135 0
c gate 136 -68 126 0
-68 -136 0
126 -136 0
68 -126 136 0
c gate 137 -70 -126 0
-70 -137 0
-126 -137 0
70 126 137 0
c gate 138 -136 -137 0
-136 -138 0
-137 -138 0
136 137 138 0
c gate 139 -125 138 0
-125 -139 0
138 -139 0
125 -138 139 0
c gate 140 128 -139 0
128 -140 0
-139 -140 0
-128 139 140 0
c gate 141 -135 140 0
-135 -141 0
140 -141 0
135 -140 141 0
c gate 142 -75 126 0
-75 -142 0
126 -142 0
75 -126 142 0
c gate 143 -77 -126 0
-77 -143 0
-126 -143 0
77 126 143 0
c gate 144 125 -143 0
125 -144 0
-143 -144 0
-125 143 144 0
c gate 145 -142 144 0
-142 -145 0
144 -145 0
142 -144 145 0
c gate 146 -76 126 0
-76 -146 0
126 -146 0
76 -126 146 0
c gate 147 -78 -126 0
-78 -147 0
-126 -147 0
78 126 147 0
c gate 148 -146 -147 0
-146 -148 0
-147 -148 0
146 147 148 0
c gate 149 -125 148 0
-125 -149 0
148 -149 0
125 -148 149 0
c gate 150 -128 -149 0
-128 -150 0
-149 -150 0
128 149 150 0
c gate 151 -145 150 0
-145 -151 0
150 -151 0
145 -150 151 0
c gate 152 127 -151 0
127 -152 0
-151 -152 0
-127 151 152 0
c gate 153 -141 152 0
-141 -153 0
152 -153 0
141 -152 153 0
c gate 154 -71 126 0
-71 -154 0
126 -154 0
71 -126 154 0
c gate 155 -73 -126 0
-73 -155 0
-126 -155 0
73 126 155 0
c gate 156 125 -155 0
125 -156 0
-155 -156 0
-125 155 156 0
c gate 157 -154 156 0
-154 -157 0
156 -157 0
154 -156 157 0
c gate 158 -72 126 0
-72 -158 0
126 -158 0
72 -126 158 0
c gate 159 -74 -126 0
-74 -159 0
-126 -159 0
74 126 159 0
c gate 160 -158 -159 0
-158 -160 0
-159 -160 0
158 159 160 0
c gate 161 -125 160 0
-125 -161 0
160 -161 0
125 -160 161 0
c gate 162 128 -161 0
128 -162 0
-161 -162 0
-128 161 162 0
c gate 163 -157 162 0
-157 -163 0
162 -163 0
157 -162 163 0
c gate 164 -80 126 0
-80 -164 0
126 -164 0
80 -126 164 0
c gate 165 -82 -126 0
-82 -165 0
-126 -165 0
82 126 165 0
c gate 166 -125 -165 0
-125 -166 0
-165 -166 0
125 165 166 0
c gate 167 -164 166 0
-164 -167 0
166 -167 0
164 -166 167 0
c gate 168 -79 126 0
-79 -168 0
126 -168 0
79 -126 168 0
c gate 169 -81 -126 0
-81 -169 0
-126 -169 0
81 126 169 0
c gate 170 125 -169 0
125 -170 0
-169 -170 0
-125 169 170 0
c gate 171 -168 170 0
-168 -171 0
170 -171 0
168 -170 171 0
c gate 172 -128 -171 0
-128 -172 0
-171 -172 0
128 171 172 0
c gate 173 -167 172 0
-167 -173 0
172 -173 0
167 -172 173 0
c gate 174 -127 -173 0
-127 -174 0
-173 -174 0
127 173 174 0
c gate 175 -163 174 0
-163 -175 0
174 -175 0
163 -174 175 0
c gate 176 -130 -175 0
-130 -176 0
-175 -176 0
130 175 176 0
c gate 177 -153 176 0
-153 -177 0
176 -177 0
153 -176 177 0
c gate 178 49 -126 0
49 -178 0
-126 -178 0
-49 126 178 0
c gate 179 47 126 0
47 -179 0
126 -179 0
-47 -126 179 0
c gate 180 125 -179 0
125 -180 0
-179 -180 0
-125 179 180 0
c gate 181 -178 180 0
-178 -181 0
180 -181 0
178 -180 181 0
c gate 182 48 126 0
48 -182 0
126 -182 0
-48 -126 182 0
c gate 183 50 -126 0
50 -183 0
-126 -183 0
-50 126 183 0
c gate 184 -125 -183 0
-125 -184 0
-183 -184 0
125 183 184 0
c gate 185 -182 184 0
-182 -185 0
184 -185 0
182 -184 185 0
c gate 186 -128 -185 0
-128 -186 0
-185 -186 0
128 185 186 0
c gate 187 -181 186 0
-181 -187 0
186 -187 0
181 -186 187 0
c gate 188 42 -126 0
42 -188 0
-126 -188 0
-42 126 188 0
c gate 189 40 126 0
40 -189 0
126 -189 0
-40 -126 189 0
c gate 190 -125 -189 0
-125 -190 0
-189 -190 0
125 189 190 0
c gate 191 -188 190 0
-188 -191 0
190 -191 0
188 -190 191 0
c gate 192 39 126 0
39 -192 0
126 -192 0
-39 -126 192 0
c gate 193 41 -126 0
41 -193 0
-126 -193 0
-41 126 193 0
c gate 194 125 -193 0
125 -194 0
-193 -194 0
-125 193 194 0
c gate 195 -192 194 0
-192 -195 0
194 -195 0
192 -194 195 0
c gate 196 128 -195 0
128 -196 0
-195 -196 0
-128 195 196 0
c gate 197 -191 196 0
-191 -197 0
196 -197 0
191 -196 197 0
c gate 198 -127 -197 0
-127 -198 0
-197 -198 0
127 197 198 0
c gate 199 -187 198 0
-187 -199 0
198 -199 0
187 -198 199 0
c gate 200 46 -126 0
46 -200 0
-126 -200 0
-46 126 200 0
c gate 201 44 126 0
44 -201 0
126 -201 0
-44 -126 201 0
c gate 202 -125 -201 0
-125 -202 0
-201 -202 0
125 201 202 0
c gate 203 -200 202 0
-200 -203 0
202 -203 0
200 -202 203 0
c gate 204 45 -126 0
45 -204 0
-126 -204 0
-45 126 204 0
c gate 205 43 126 0
43 -205 0
126 -205 0
-43 -126 205 0
c gate 206 125 -205 0
125 -206 0
-205 -206 0
-125 205 206 0
c gate 207 -204 206 0
-204 -207 0
206 -207 0
204 -206 207 0
c gate 208 -128 -207 0
-128 -208 0
-207 -208 0
128 207 208 0
c gate 209 -203 208 0
-203 -209 0
208 -209 0
203 -208 209 0
c gate 210 35 126 0
35 -210 0
126 -210 0
-35 -126 210 0
c gate 211 37 -126 0
37 -211 0
-126 -211 0
-37 126 211 0
c gate 212 125 -211 0
125 -212 0
-211 -212 0
-125 211 212 0
c gate 213 -210 212 0
-210 -213 0
212 -213 0
210 -212 213 0
c gate 214 36 126 0
36 -214 0
126 -214 0
-36 -126 214 0
c gate 215 38 -126 0
38 -215 0
-126 -215 0
-38 126 215 0
c gate 216 -125 -215 0
-125 -216 0
-215 -216 0
125 215 216 0
c gate 217 -214 216 0
-214 -217 0
216 -217 0
214 -216 217 0
c gate 218 128 -217 0
128 -218 0
-217 -218 0
-128 217 218 0
c gate 219 -213 218 0
-213 -219 0
218 -219 0
213 -218 219 0
c gate 220 127 -219 0
127 -220 0
-219 -220 0
-127 219 220 0
c gate 221 -209 220 0
-209 -221 0
220 -221 0
209 -220 221 0
c gate 222 -199 -221 0
-199 -222 0
-221 -222 0
199 221 222 0
c gate 223 130 -222 0
130 -223 0
-222 -223 0
-130 222 223 0
c gate 224 -129 -223 0
-129 -224 0
-223 -224 0
129 223 224 0
c gate 225 -177 224 0
-177 -225 0
224 -225 0
177 -224 225 0
c gate 226 131 -225 0
131 -226 0
-225 -226 0
-131 225 226 0
c gate 227 33 -126 0
33 -227 0
-126 -227 0
-33 126 227 0
c gate 228 31 126 0
31 -228 0
126 -228 0
-31 -126 228 0
c gate 229 125 -228 0
125 -229 0
-228 -229 0
-125 228 229 0
c gate 230 -227 229 0
-227 -230 0
229 -230 0
227 -229 230 0
c gate 231 32 126 0
32 -231 0
126 -231 0
-32 -126 231 0
c gate 232 34 -126 0
34 -232 0
-126 -232 0
-34 126 232 0
c gate 233 -125 -232 0
-125 -233 0
-232 -233 0
125 232 233 0
c gate 234 -231 233 0
-231 -234 0
233 -234 0
231 -233 234 0
c gate 235 -128 -234 0
-128 -235 0
-234 -235 0
128 234 235 0
c gate 236 -230 235 0
-230 -236 0
235 -236 0
230 -235 236 0
c gate 237 26 -126 0
26 -237 0
-126 -237 0
-26 126 237 0
c gate 238 24 126 0
24 -238 0
126 -238 0
-24 -126 238 0
c gate 239 -125 -238 0
-125 -239 0
-238 -239 0
125 238 239 0
c gate 240 -237 239 0
-237 -240 0
239 -240 0
237 -239 240 0
c gate 241 23 126 0
23 -241 0
126 -241 0
-23 -126 241 0
c gate 242 25 -126 0
25 -242 0
-126 -242 0
-25 126 242 0
c gate 243 125 -242 0
125 -243 0
-242 -243 0
-125 242 243 0
c gate 244 -241 243 0
-241 -244 0
243 -244 0
241 -243 244 0
c gate 245 128 -244 0
128 -245 0
-244 -245 0
-128 244 245 0
c gate 246 -240 245 0
-240 -246 0
245 -246 0
240 -245 246 0
c gate 247 -127 -246 0
-127 -247 0
-246 -247 0
127 246 247 0
c gate 248 -236 247 0
-236 -248 0
247 -248 0
236 -247 248 0
c gate 249 29 -126 0
29 -249 0
-126 -249 0
-29 126 249 0
c gate 250 27 126 0
27 -250 0
126 -250 0
-27 -126 250 0
c gate 251 125 -250 0
125 -251 0
-250 -251 0
-125 250 251 0
c gate 252 -249 251 0
-249 -252 0
251 -252 0
249 -251 252 0
c gate 253 28 126 0
28 -253 0
126 -253 0
-28 -126 253 0
c gate 254 30 -126 0
30 -254 0
-126 -254 0
-30 126 254 0
c gate 255 -125 -254 0
-125 -255 0
-254 -255 0
125 254 255 0
c gate 256 -253 255 0
-253 -256 0
255 -256 0
253 -255 256 0
c gate 257 -128 -256 0
-128 -257 0
-256 -257 0
128 256 257 0
c gate 258 -252 257 0
-252 -258 0
257 -258 0
252 -257 258 0
c gate 259 22 -126 0
22 -259 0
-126 -259 0
-22 126 259 0
c gate 260 20 126 0
20 -260 0
126 -260 0
-20 -126 260 0
c gate 261 -125 -260 0
-125 -261 0
-260 -261 0
125 260 261 0
c gate 262 -259 261 0
-259 -262 0
261 -262 0
259 -261 262 0
c gate 263 19 126 0
19 -263 0
126 -263 0
-19 -126 263 0
c gate 264 21 -126 0
21 -264 0
-126 -264 0
-21 126 264 0
c gate 265 125 -264 0
125 -265 0
-264 -265 0
-125 264 265 0
c gate 266 -263 265 0
-263 -266 0
265 -266 0
263 -265 266 0
c gate 267 128 -266 0
128 -267 0
-266 -267 0
-128 266 267 0
c gate 268 -262 267 0
-262 -268 0
267 -268 0
262 -267 268 0
c gate 269 127 -268 0
127 -269 0
-268 -269 0
-127 268 269 0
c gate 270 -258 269 0
-258 -270 0
269 -270 0
258 -269 270 0
c gate 271 -248 -270 0
-248 -271 0
-270 -271 0
248 270 271 0
c gate 272 130 -271 0
130 -272 0
-271 -272 0
-130 271 272 0
c gate 273 61 -126 0
61 -273 0
-126 -273 0
-61 126 273 0
c gate 274 59 126 0
59 -274 0
126 -274 0
-59 -126 274 0
c gate 275 125 -274 0
125 -275 0
-274 -275 0
-125 274 275 0
c gate 276 -273 275 0
-273 -276 0
275 -276 0
273 -275 276 0
c gate 277 60 126 0
60 -277 0
126 -277 0
-60 -126 277 0
c gate 278 62 -126 0
62 -278 0
-126 -278 0
-62 126 278 0
c gate 279 -125 -278 0
-125 -279 0
-278 -279 0
125 278 279 0
c gate 280 -277 279 0
-277 -280 0
279 -280 0
277 -279 280 0
c gate 281 -128 -280 0
-128 -281 0
-280 -281 0
128 280 281 0
c gate 282 -276 281 0
-276 -282 0
281 -282 0
276 -281 282 0
c gate 283 54 -126 0
54 -283 0
-126 -283 0
-54 126 283 0
c gate 284 52 126 0
52 -284 0
126 -284 0
-52 -126 284 0
c gate 285 -125 -284 0
-125 -285 0
-284 -285 0
125 284 285 0
c gate 286 -283 285 0
-283 -286 0
285 -286 0
283 -285 286 0
c gate 287 51 126 0
51 -287 0
126 -287 0
-51 -126 287 0
c gate 288 53 -126 0
53 -288 0
-126 -288 0
-53 126 288 0
c gate 289 125 -288 0
125 -289 0
-288 -289 0
-125 288 289 0
c gate 290 -287 289 0
-287 -290 0
289 -290 0
287 -289 290 0
c gate 291 128 -290 0
128 -291 0
-290 -291 0
-128 290 291 0
c gate 292 -286 291 0
-286 -292 0
291 -292 0
286 -291 292 0
c gate 293 127 -292 0
127 -293 0
-292 -293 0
-127 292 293 0
c gate 294 -282 293 0
-282 -294 0
293 -294 0
282 -293 294 0
c gate 295 -63 126 0
-63 -295 0
126 -295 0
63 -126 295 0
c gate 296 -65 -126 0
-65 -296 0
-126 -296 0
65 126 296 0
c gate 297 -295 -296 0
-295 -297 0
-296 -297 0
295 296 297 0
c gate 298 125 -297 0
125 -298 0
-297 -298 0
-125 297 298 0
c gate 299 -64 126 0
-64 -299 0
126 -299 0
64 -126 299 0
c gate 300 -66 -126 0
-66 -300 0
-126 -300 0
66 126 300 0
c gate 301 -299 -300 0
-299 -301 0
-300 -301 0
299 300 301 0
c gate 302 -125 -301 0
-125 -302 0
-301 -302 0
125 301 302 0
c gate 303 -128 -302 0
-128 -303 0
-302 -303 0
128 302 303 0
c gate 304 -298 303 0
-298 -304 0
303 -304 0
298 -303 304 0
c gate 305 -56 126 0
-56 -305 0
126 -305 0
56 -126 305 0
c gate 306 -58 -126 0
-58 -306 0
-126 -306 0
58 126 306 0
c gate 307 -125 -306 0
-125 -307 0
-306 -307 0
125 306 307 0
c gate 308 -305 307 0
-305 -308 0
307 -308 0
305 -307 308 0
c gate 309 -57 -126 0
-57 -309 0
-126 -309 0
57 126 309 0
c gate 310 -55 126 0
-55 -310 0
126 -310 0
55 -126 310 0
c gate 311 125 -310 0
125 -311 0
-310 -311 0
-125 310 311 0
c gate 312 -309 311 0
-309 -312 0
311 -312 0
309 -311 312 0
c gate 313 -308 -312 0
-308 -313 0
-312 -313 0
308 312 313 0
c gate 314 128 -313 0
128 -314 0
-313 -314 0
-128 313 314 0
c gate 315 -127 -314 0
-127 -315 0
-314 -315 0
127 314 315 0
c gate 316 -304 315 0
-304 -316 0
315 -316 0
304 -315 316 0
c gate 317 -294 -316 0
-294 -317 0
-316 -317 0
294 316 317 0
c gate 318 -130 -317 0
-130 -318 0
-317 -318 0
130 317 318 0
c gate 319 129 -318 0
129 -319 0
-318 -319 0
-129 318 319 0
c gate 320 -272 319 0
-272 -320 0
319 -320 0
272 -319 320 0
c gate 321 -226 320 0
-226 -321 0
320 -321 0
226 -320 321 0
c gate 322 -45 126 0
-45 -322 0
126 -322 0
45 -126 322 0
c gate 323 -47 -126 0
-47 -323 0
-126 -323 0
47 126 323 0
c gate 324 125 -323 0
125 -324 0
-323 -324 0
-125 323 324 0
c gate 325 -322 324 0
-322 -325 0
324 -325 0
322 -324 325 0
c gate 326 -46 126 0
-46 -326 0
126 -326 0
46 -126 326 0
c gate 327 -48 -126 0
-48 -327 0
-126 -327 0
48 126 327 0
c gate 328 -125 -327 0
-125 -328 0
-327 -328 0
125 327 328 0
c gate 329 -326 328 0
-326 -329 0
328 -329 0
326 -328 329 0
c gate 330 -325 -329 0
-325 -330 0
-329 -330 0
325 329 330 0
c gate 331 128 330 0
128 -331 0
330 -331 0
-128 -330 331 0
c gate 332 -54 126 0
-54 -332 0
126 -332 0
54 -126 332 0
c gate 333 -56 -126 0
-56 -333 0
-126 -333 0
56 126 333 0
c gate 334 -125 -333 0
-125 -334 0
-333 -334 0
125 333 334 0
c gate 335 -332 334 0
-332 -335 0
334 -335 0
332 -334 335 0
c gate 336 -53 126 0
-53 -336 0
126 -336 0
53 -126 336 0
c gate 337 -55 -126 0
-55 -337 0
-126 -337 0
55 126 337 0
c gate 338 125 -337 0
125 -338 0
-337 -338 0
-125 337 338 0
c gate 339 -336 338 0
-336 -339 0
338 -339 0
336 -338 339 0
c gate 340 -128 -339 0
-128 -340 0
-339 -340 0
128 339 340 0
c gate 341 -335 340 0
-335 -341 0
340 -341 0
335 -340 341 0
c gate 342 -127 -341 0
-127 -342 0
-341 -342 0
127 341 342 0
c gate 343 -331 342 0
-331 -343 0
342 -343 0
331 -342 343 0
c gate 344 -41 126 0
-41 -344 0
126 -344 0
41 -126 344 0
c gate 345 -43 -126 0
-43 -345 0
-126 -345 0
43 126 345 0
c gate 346 125 -345 0
125 -346 0
-345 -346 0
-125 345 346 0
c gate 347 -344 346 0
-344 -347 0
346 -347 0
344 -346 347 0
c gate 348 -42 126 0
-42 -348 0
126 -348 0
42 -126 348 0
c gate 349 -44 -126 0
-44 -349 0
-126 -349 0
44 126 349 0
c gate 350 -125 -349 0
-125 -350 0
-349 -350 0
125 349 350 0
c gate 351 -348 350 0
-348 -351 0
350 -351 0
348 -350 351 0
c gate 352 -347 -351 0
-347 -352 0
-351 -352 0
347 351 352 0
c gate 353 128 352 0
128 -353 0
352 -353 0
-128 -352 353 0
c gate 354 -50 126 0
-50 -354 0
126 -354 0
50 -126 354 0
c gate 355 -52 -126 0
-52 -355 0
-126 -355 0
52 126 355 0
c gate 356 -125 -355 0
-125 -356 0
-355 -356 0
125 355 356 0
c gate 357 -354 356 0
-354 -357 0
356 -357 0
354 -356 357 0
c gate 358 -49 126 0
-49 -358 0
126 -358 0
49 -126 358 0
c gate 359 -51 -126 0
-51 -359 0
-126 -359 0
51 126 359 0
c gate 360 125 -359 0
125 -360 0
-359 -360 0
-125 359 360 0
c gate 361 -358 360 0
-358 -361 0
360 -361 0
358 -360 361 0
c gate 362 -128 -361 0
-128 -362 0
-361 -362 0
128 361 362 0
c gate 363 -357 362 0
-357 -363 0
362 -363 0
357 -362 363 0
c gate 364 127 -363 0
127 -364 0
-363 -364 0
-127 363 364 0
c gate 365 -353 364 0
-353 -365 0
364 -365 0
353 -364 365 0
c gate 366 -343 -365 0
-343 -366 0
-365 -366 0
343 365 366 0
c gate 367 -130 -366 0
-130 -367 0
-366 -367 0
130 366 367 0
c gate 368 12 -126 0
12 -368 0
-126 -368 0
-12 126 368 0
c gate 369 10 126 0
10 -369 0
126 -369 0
-10 -126 369 0
c gate 370 -125 -369 0
-125 -370 0
-369 -370 0
125 369 370 0
c gate 371 -368 370 0
-368 -371 0
370 -371 0
368 -370 371 0
c gate 372 11 -126 0
11 -372 0
-126 -372 0
-11 126 372 0
c gate 373 9 126 0
9 -373 0
126 -373 0
-9 -126 373 0
c gate 374 125 -373 0
125 -374 0
-373 -374 0
-125 373 374 0
c gate 375 -372 374 0
-372 -375 0
374 -375 0
372 -374 375 0
c gate 376 -371 -375 0
-371 -376 0
-375 -376 0
371 375 376 0
c gate 377 128 -376 0
128 -377 0
-376 -377 0
-128 376 377 0
c gate 378 19 -126 0
19 -378 0
-126 -378 0
-19 126 378 0
c gate 379 17 126 0
17 -379 0
126 -379 0
-17 -126 379 0
c gate 380 125 -379 0
125 -380 0
-379 -380 0
-125 379 380 0
c gate 381 -378 380 0
-378 -381 0
380 -381 0
378 -380 381 0
c gate 382 20 -126 0
20 -382 0
-126 -382 0
-20 126 382 0
c gate 383 18 126 0
18 -383 0
126 -383 0
-18 -126 383 0
c gate 384 -125 -383 0
-125 -384 0
-383 -384 0
125 383 384 0
c gate 385 -382 384 0
-382 -385 0
384 -385 0
382 -384 385 0
c gate 386 -381 -385 0
-381 -386 0
-385 -386 0
381 385 386 0
c gate 387 -128 -386 0
-128 -387 0
-386 -387 0
128 386 387 0
c gate 388 127 -387 0
127 -388 0
-387 -388 0
-127 387 388 0
c gate 389 -377 388 0
-377 -389 0
388 -389 0
377 -388 389 0
c gate 390 16 -126 0
16 -390 0
-126 -390 0
-16 126 390 0
c gate 391 14 126 0
14 -391 0
126 -391 0
-14 -126 391 0
c gate 392 -125 -391 0
-125 -392 0
-391 -392 0
125 391 392 0
c gate 393 -390 392 0
-390 -393 0
392 -393 0
390 -392 393 0
c gate 394 15 -126 0
15 -394 0
-126 -394 0
-15 126 394 0
c gate 395 13 126 0
13 -395 0
126 -395 0
-13 -126 395 0
c gate 396 125 -395 0
125 -396 0
-395 -396 0
-125 395 396 0
c gate 397 -394 396 0
-394 -397 0
396 -397 0
394 -396 397 0
c gate 398 -393 -397 0
-393 -398 0
-397 -398 0
393 397 398 0
c gate 399 128 -398 0
128 -399 0
-398 -399 0
-128 398 399 0
c gate 400 23 -126 0
23 -400 0
-126 -400 0
-23 126 400 0
c gate 401 21 126 0
21 -401 0
126 -401 0
-21 -126 401 0
c gate 402 125 -401 0
125 -402 0
-401 -402 0
-125 401 402 0
c gate 403 -400 402 0
-400 -403 0
402 -403 0
400 -402 403 0
c gate 404 24 -126 0
24 -404 0
-126 -404 0
-24 126 404 0
c gate 405 22 126 0
22 -405 0
126 -405 0
-22 -126 405 0
c gate 406 -125 -405 0
-125 -406 0
-405 -406 0
125 405 406 0
c gate 407 -404 406 0
-404 -407 0
406 -407 0
404 -406 407 0
c gate 408 -403 -407 0
-403 -408 0
-407 -408 0
403 407 408 0
c gate 409 -128 -408 0
-128 -409 0
-408 -409 0
128 408 409 0
c gate 410 -127 -409 0
-127 -410 0
-409 -410 0
127 409 410 0
c gate 411 -399 410 0
-399 -411 0
410 -411 0
399 -410 411 0
c gate 412 -389 -411 0
-389 -412 0
-411 -412 0
389 411 412 0
c gate 413 130 -412 0
130 -413 0
-412 -413 0
-130 412 413 0
c gate 414 -367 -413 0
-367 -414 0
-413 -414 0
367 413 414 0
c gate 415 -97 -126 0
-97 -415 0
-126 -415 0
97 126 415 0
c gate 416 -95 126 0
-95 -416 0
126 -416 0
95 -126 416 0
c gate 417 -415 -416 0
-415 -417 0
-416 -417 0
415 416 417 0
c gate 418 125 417 0
125 -418 0
417 -418 0
-125 -417 418 0
c gate 419 -96 126 0
-96 -419 0
126 -419 0
96 -126 419 0
c gate 420 -98 -126 0
-98 -420 0
-126 -420 0
98 126 420 0
c gate 421 -419 -420 0
-419 -421 0
-420 -421 0
419 420 421 0
c gate 422 -125 421 0
-125 -422 0
421 -422 0
125 -421 422 0
c gate 423 -128 -422 0
-128 -423 0
-422 -423 0
128 422 423 0
c gate 424 -418 423 0
-418 -424 0
423 -424 0
418 -423 424 0
c gate 425 -89 -126 0
-89 -425 0
-126 -425 0
89 126 425 0
c gate 426 -87 126 0
-87 -426 0
126 -426 0
87 -126 426 0
c gate 427 -425 -426 0
-425 -427 0
-426 -427 0
425 426 427 0
c gate 428 125 427 0
125 -428 0
427 -428 0
-125 -427 428 0
c gate 429 -90 -126 0
-90 -429 0
-126 -429 0
90 126 429 0
c gate 430 -88 126 0
-88 -430 0
126 -430 0
88 -126 430 0
c gate 431 -125 -430 0
-125 -431 0
-430 -431 0
125 430 431 0
c gate 432 -429 431 0
-429 -432 0
431 -432 0
429 -431 432 0
c gate 433 128 -432 0
128 -433 0
-432 -433 0
-128 432 433 0
c gate 434 -428 433 0
-428 -434 0
433 -434 0
428 -433 434 0
c gate 435 -424 -434 0
-424 -435 0
-434 -435 0
424 434 435 0
c gate 436 127 -435 0
127 -436 0
-435 -436 0
-127 435 436 0
c gate 437 -93 -126 0
-93 -437 0
-126 -437 0
93 126 437 0
c gate 438 -91 126 0
-91 -438 0
126 -438 0
91 -126 438 0
c gate 439 -437 -438 0
-437 -439 0
-438 -439 0
437 438 439 0
c gate 440 125 439 0
125 -440 0
439 -440 0
-125 -439 440 0
c gate 441 -94 -126 0
-94 -441 0
-126 -441 0
94 126 441 0
c gate 442 -92 126 0
-92 -442 0
126 -442 0
92 -126 442 0
c gate 443 -125 -442 0
-125 -443 0
-442 -443 0
125 442 443 0
c gate 444 -441 443 0
-441 -444 0
443 -444 0
441 -443 444 0
c gate 445 128 -444 0
128 -445 0
-444 -445 0
-128 444 445 0
c gate 446 -440 445 0
-440 -446 0
445 -446 0
440 -445 446 0
c gate 447 -99 126 0
-99 -447 0
126 -447 0
99 -126 447 0
c gate 448 -101 -126 0
-101 -448 0
-126 -448 0
101 126 448 0
c gate 449 125 -448 0
125 -449 0
-448 -449 0
-125 448 449 0
c gate 450 -447 449 0
-447 -450 0
449 -450 0
447 -449 450 0
c gate 451 -100 126 0
-100 -451 0
126 -451 0
100 -126 451 0
c gate 452 -102 -126 0
-102 -452 0
-126 -452 0
102 126 452 0
c gate 453 -451 -452 0
-451 -453 0
-452 -453 0
451 452 453 0
c gate 454 -125 453 0
-125 -454 0
453 -454 0
125 -453 454 0
c gate 455 -128 -454 0
-128 -455 0
-454 -455 0
128 454 455 0
c gate 456 -450 455 0
-450 -456 0
455 -456 0
450 -455 456 0
c gate 457 -446 -456 0
-446 -457 0
-456 -457 0
446 456 457 0
c gate 458 -127 -457 0
-127 -458 0
-457 -458 0
127 457 458 0
c gate 459 130 -458 0
130 -459 0
-458 -459 0
-130 458 459 0
c gate 460 -436 459 0
-436 -460 0
459 -460 0
436 -459 460 0
c gate 461 -119 -126 0
-119 -461 0
-126 -461 0
119 126 461 0
c gate 462 -117 126 0
-117 -462 0
126 -462 0
117 -126 462 0
c gate 463 -461 -462 0
-461 -463 0
-462 -463 0
461 462 463 0
c gate 464 125 463 0
125 -464 0
463 -464 0
-125 -463 464 0
c gate 465 -120 -126 0
-120 -465 0
-126 -465 0
120 126 465 0
c gate 466 -118 126 0
-118 -466 0
126 -466 0
118 -126 466 0
c gate 467 -125 -466 0
-125 -467 0
-466 -467 0
125 466 467 0
c gate 468 -465 467 0
-465 -468 0
467 -468 0
465 -467 468 0
c gate 469 128 -468 0
128 -469 0
-468 -469 0
-128 468 469 0
c gate 470 -464 469 0
-464 -470 0
469 -470 0
464 -469 470 0
c gate 471 -3 -126 0
-3 -471 0
-126 -471 0
3 126 471 0
c gate 472 -1 126 0
-1 -472 0
126 -472 0
1 -126 472 0
c gate 473 -471 -472 0
-471 -473 0
-472 -473 0
471 472 473 0
c gate 474 125 473 0
125 -474 0
473 -474 0
-125 -473 474 0
c gate 475 -4 -126 0
-4 -475 0
-126 -475 0
4 126 475 0
c gate 476 -2 126 0
-2 -476 0
126 -476 0
2 -126 476 0
c gate 477 -125 -476 0
-125 -477 0
-476 -477 0
125 476 477 0
c gate 478 -475 477 0
-475 -478 0
477 -478 0
475 -477 478 0
c gate 479 -128 -478 0
-128 -479 0
-478 -479 0
128 478 479 0
c gate 480 -474 479 0
-474 -480 0
479 -480 0
474 -479 480 0
c gate 481 127 -480 0
127 -481 0
-480 -481 0
-127 480 481 0
c gate 482 -470 481 0
-470 -482 0
481 -482 0
470 -481 482 0
c gate 483 -123 -126 0
-123 -483 0
-126 -483 0
123 126 483 0
c gate 484 -121 126 0
-121 -484 0
126 -484 0
121 -126 484 0
c gate 485 -483 -484 0
-483 -485 0
-484 -485 0
483 484 485 0
c gate 486 125 485 0
125 -486 0
485 -486 0
-125 -485 486 0
c gate 487 -124 -126 0
-124 -487 0
-126 -487 0
124 126 487 0
c gate 488 -122 126 0
-122 -488 0
126 -488 0
122 -126 488 0
c gate 489 -125 -488 0
-125 -489 0
-488 -489 0
125 488 489 0
c gate 490 -487 489 0
-487 -490 0
489 -490 0
487 -489 490 0
c gate 491 128 -490 0
128 -491 0
-490 -491 0
-128 490 491 0
c gate 492 -486 491 0
-486 -492 0
491 -492 0
486 -491 492 0
c gate 493 -6 126 0
-6 -493 0
126 -493 0
6 -126 493 0
c gate 494 -8 -126 0
-8 -494 0
-126 -494 0
8 126 494 0
c gate 495 -125 -494 0
-125 -495 0
-494 -495 0
125 494 495 0
c gate 496 -493 495 0
-493 -496 0
495 -496 0
493 -495 496 0
c gate 497 -5 126 0
-5 -497 0
126 -497 0
5 -126 497 0
c gate 498 -7 -126 0
-7 -498 0
-126 -498 0
7 126 498 0
c gate 499 125 -498 0
125 -499 0
-498 -499 0
-125 498 499 0
c gate 500 -497 499 0
-497 -500 0
499 -500 0
497 -499 500 0
c gate 501 -128 -500 0
-128 -501 0
-500 -501 0
128 500 501 0
c gate 502 -496 501 0
-496 -502 0
501 -502 0
496 -501 502 0
c gate 503 -127 -502 0
-127 -503 0
-502 -503 0
127 502 503 0
c gate 504 -492 503 0
-492 -504 0
503 -504 0
492 -503 504 0
c gate 505 -482 -504 0
-482 -505 0
-504 -505 0
482 504 505 0
c gate 506 -130 -505 0
-130 -506 0
-505 -506 0
130 505 506 0
c gate 507 129 -506 0
129 -507 0
-506 -507 0
-129 506 507 0
c gate 508 -460 507 0
-460 -508 0
507 -508 0
460 -507 508 0
c gate 509 131 508 0
131 -509 0
508 -509 0
-131 -508 509 0
c gate 510 -38 126 0
-38 -510 0
126 -510 0
38 -126 510 0
c gate 511 -40 -126 0
-40 -511 0
-126 -511 0
40 126 511 0
c gate 512 -125 -511 0
-125 -512 0
-511 -512 0
125 511 512 0
c gate 513 -510 512 0
-510 -513 0
512 -513 0
510 -512 513 0
c gate 514 -37 126 0
-37 -514 0
126 -514 0
37 -126 514 0
c gate 515 -39 -126 0
-39 -515 0
-126 -515 0
39 126 515 0
c gate 516 125 -515 0
125 -516 0
-515 -516 0
-125 515 516 0
c gate 517 -514 516 0
-514 -517 0
516 -517 0
514 -516 517 0
c gate 518 128 -517 0
128 -518 0
-517 -518 0
-128 517 518 0
c gate 519 -513 518 0
-513 -519 0
518 -519 0
513 -518 519 0
c gate 520 -128 330 0
-128 -520 0
330 -520 0
128 -330 520 0
c gate 521 -127 -520 0
-127 -521 0
-520 -521 0
127 520 521 0
c gate 522 -519 521 0
-519 -522 0
521 -522 0
519 -521 522 0
c gate 523 -34 126 0
-34 -523 0
126 -523 0
34 -126 523 0
c gate 524 -36 -126 0
-36 -524 0
-126 -524 0
36 126 524 0
c gate 525 -125 -524 0
-125 -525 0
-524 -525 0
125 524 525 0
c gate 526 -523 525 0
-523 -526 0
525 -526 0
523 -525 526 0
c gate 527 -33 126 0
-33 -527 0
126 -527 0
33 -126 527 0
c gate 528 -35 -126 0
-35 -528 0
-126 -528 0
35 126 528 0
c gate 529 125 -528 0
125 -529 0
-528 -529 0
-125 528 529 0
c gate 530 -527 529 0
-527 -530 0
529 -530 0
527 -529 530 0
c gate 531 128 -530 0
128 -531 0
-530 -531 0
-128 530 531 0
c gate 532 -526 531 0
-526 -532 0
531 -532 0
526 -531 532 0
c gate 533 -128 352 0
-128 -533 0
352 -533 0
128 -352 533 0
c gate 534 127 -533 0
127 -534 0
-533 -534 0
-127 533 534 0
c gate 535 -532 534 0
-532 -535 0
534 -535 0
532 -534 535 0
c gate 536 -522 -535 0
-522 -536 0
-535 -536 0
522 535 536 0
c gate 537 130 -536 0
130 -537 0
-536 -537 0
-130 536 537 0
c gate 538 -67 -126 0
-67 -538 0
-126 -538 0
67 126 538 0
c gate 539 -65 126 0
-65 -539 0
126 -539 0
65 -126 539 0
c gate 540 -538 -539 0
-538 -540 0
-539 -540 0
538 539 540 0
c gate 541 125 540 0
125 -541 0
540 -541 0
-125 -540 541 0
c gate 542 -66 126 0
-66 -542 0
126 -542 0
66 -126 542 0
c gate 543 -68 -126 0
-68 -543 0
-126 -543 0
68 126 543 0
c gate 544 -125 -543 0
-125 -544 0
-543 -544 0
125 543 544 0
c gate 545 -542 544 0
-542 -545 0
544 -545 0
542 -544 545 0
c gate 546 128 -545 0
128 -546 0
-545 -546 0
-128 545 546 0
c gate 547 -541 546 0
-541 -547 0
546 -547 0
541 -546 547 0
c gate 548 -75 -126 0
-75 -548 0
-126 -548 0
75 126 548 0
c gate 549 -73 126 0
-73 -549 0
126 -549 0
73 -126 549 0
c gate 550 -548 -549 0
-548 -550 0
-549 -550 0
548 549 550 0
c gate 551 125 550 0
125 -551 0
550 -551 0
-125 -550 551 0
c gate 552 -74 126 0
-74 -552 0
126 -552 0
74 -126 552 0
c gate 553 -76 -126 0
-76 -553 0
-126 -553 0
76 126 553 0
c gate 554 -125 -553 0
-125 -554 0
-553 -554 0
125 553 554 0
c gate 555 -552 554 0
-552 -555 0
554 -555 0
552 -554 555 0
c gate 556 -128 -555 0
-128 -556 0
-555 -556 0
128 555 556 0
c gate 557 -551 556 0
-551 -557 0
556 -557 0
551 -556 557 0
c gate 558 -547 -557 0
-547 -558 0
-557 -558 0
547 557 558 0
c gate 559 127 -558 0
127 -559 0
-558 -559 0
-127 558 559 0
c gate 560 -79 -126 0
-79 -560 0
-126 -560 0
79 126 560 0
c gate 561 -77 126 0
-77 -561 0
126 -561 0
77 -126 561 0
c gate 562 -560 -561 0
-560 -562 0
-561 -562 0
560 561 562 0
c gate 563 125 562 0
125 -563 0
562 -563 0
-125 -562 563 0
c gate 564 -78 126 0
-78 -564 0
126 -564 0
78 -126 564 0
c gate 565 -80 -126 0
-80 -565 0
-126 -565 0
80 126 565 0
c gate 566 -125 -565 0
-125 -566 0
-565 -566 0
125 565 566 0
c gate 567 -564 566 0
-564 -567 0
566 -567 0
564 -566 567 0
c gate 568 -128 -567 0
-128 -568 0
-567 -568 0
128 567 568 0
c gate 569 -563 568 0
-563 -569 0
568 -569 0
563 -568 569 0
c gate 570 -71 -126 0
-71 -570 0
-126 -570 0
71 126 570 0
c gate 571 -69 126 0
-69 -571 0
126 -571 0
69 -126 571 0
c gate 572 -570 -571 0
-570 -572 0
-571 -572 0
570 571 572 0
c gate 573 125 572 0
125 -573 0
572 -573 0
-125 -572 573 0
c gate 574 -70 126 0
-70 -574 0
126 -574 0
70 -126 574 0
c gate 575 -72 -126 0
-72 -575 0
-126 -575 0
72 126 575 0
c gate 576 -125 -575 0
-125 -576 0
-575 -576 0
125 575 576 0
c gate 577 -574 576 0
-574 -577 0
576 -577 0
574 -576 577 0
c gate 578 128 -577 0
128 -578 0
-577 -578 0
-128 577 578 0
c gate 579 -573 578 0
-573 -579 0
578 -579 0
573 -578 579 0
c gate 580 -569 -579 0
-569 -580 0
-579 -580 0
569 579 580 0
c gate 581 -127 -580 0
-127 -581 0
-580 -581 0
127 580 581 0
c gate 582 -130 -581 0
-130 -582 0
-581 -582 0
130 581 582 0
c gate 583 -559 582 0
-559 -583 0
582 -583 0
559 -582 583 0
c gate 584 -537 -583 0
-537 -584 0
-583 -584 0
537 583 584 0
c gate 585 129 -584 0
129 -585 0
-584 -585 0
-129 584 585 0
c gate 586 131 585 0
131 -586 0
585 -586 0
-131 -585 586 0
c gate 587 129 -414 0
129 -587 0
-414 -587 0
-129 414 587 0
c gate 588 131 587 0
131 -588 0
587 -588 0
-131 -587 588 0
c gate 589 226 320 0
226 -589 0
320 -589 0
-226 -320 589 0
c gate 590 -588 -589 0
-588 -590 0
-589 -590 0
588 589 590 0
c gate 591 -586 590 0
-586 -591 0
590 -591 0
586 -590 591 0
c gate 592 -131 587 0
-131 -592 0
587 -592 0
131 -587 592 0
c gate 593 591 -592 0
591 -593 0
-592 -593 0
-591 592 593 0
c gate 594 -88 -126 0
-88 -594 0
-126 -594 0
88 126 594 0
c gate 595 -86 126 0
-86 -595 0
126 -595 0
86 -126 595 0
c gate 596 125 -595 0
125 -596 0
-595 -596 0
-125 595 596 0
c gate 597 -594 596 0
-594 -597 0
596 -597 0
594 -596 597 0
c gate 598 -125 427 0
-125 -598 0
427 -598 0
125 -427 598 0
c gate 599 128 -598 0
128 -599 0
-598 -599 0
-128 598 599 0
c gate 600 -597 599 0
-597 -600 0
599 -600 0
597 -599 600 0
c gate 601 -96 -126 0
-96 -601 0
-126 -601 0
96 126 601 0
c gate 602 -94 126 0
-94 -602 0
126 -602 0
94 -126 602 0
c gate 603 125 -602 0
125 -603 0
-602 -603 0
-125 602 603 0
c gate 604 -601 603 0
-601 -604 0
603 -604 0
601 -603 604 0
c gate 605 -125 417 0
-125 -605 0
417 -605 0
125 -417 605 0
c gate 606 -128 -605 0
-128 -606 0
-605 -606 0
128 605 606 0
c gate 607 -604 606 0
-604 -607 0
606 -607 0
604 -606 607 0
c gate 608 -127 -607 0
-127 -608 0
-607 -608 0
127 607 608 0
c gate 609 -600 608 0
-600 -609 0
608 -609 0
600 -608 609 0
c gate 610 -92 -126 0
-92 -610 0
-126 -610 0
92 126 610 0
c gate 611 -90 126 0
-90 -611 0
126 -611 0
90 -126 611 0
c gate 612 125 -611 0
125 -612 0
-611 -612 0
-125 611 612 0
c gate 613 -610 612 0
-610 -613 0
612 -613 0
610 -612 613 0
c gate 614 -125 439 0
-125 -614 0
439 -614 0
125 -439 614 0
c gate 615 -128 -614 0
-128 -615 0
-614 -615 0
128 614 615 0
c gate 616 -613 615 0
-613 -616 0
615 -616 0
613 -615 616 0
c gate 617 -83 126 0
-83 -617 0
126 -617 0
83 -126 617 0
c gate 618 -85 -126 0
-85 -618 0
-126 -618 0
85 126 618 0
c gate 619 -125 -618 0
-125 -619 0
-618 -619 0
125 618 619 0
c gate 620 -617 619 0
-617 -620 0
619 -620 0
617 -619 620 0
c gate 621 -82 126 0
-82 -621 0
126 -621 0
82 -126 621 0
c gate 622 -84 -126 0
-84 -622 0
-126 -622 0
84 126 622 0
c gate 623 125 -622 0
125 -623 0
-622 -623 0
-125 622 623 0
c gate 624 -621 623 0
-621 -624 0
623 -624 0
621 -623 624 0
c gate 625 128 -624 0
128 -625 0
-624 -625 0
-128 624 625 0
c gate 626 -620 625 0
-620 -626 0
625 -626 0
620 -625 626 0
c gate 627 127 -626 0
127 -627 0
-626 -627 0
-127 626 627 0
c gate 628 -616 627 0
-616 -628 0
627 -628 0
616 -627 628 0
c gate 629 -609 -628 0
-609 -629 0
-628 -629 0
609 628 629 0
c gate 630 130 -629 0
130 -630 0
-629 -630 0
-130 629 630 0
c gate 631 -118 -126 0
-118 -631 0
-126 -631 0
118 126 631 0
c gate 632 -116 126 0
-116 -632 0
126 -632 0
116 -126 632 0
c gate 633 125 -632 0
125 -633 0
-632 -633 0
-125 632 633 0
c gate 634 -631 633 0
-631 -634 0
633 -634 0
631 -633 634 0
c gate 635 -125 463 0
-125 -635 0
463 -635 0
125 -463 635 0
c gate 636 128 -635 0
128 -636 0
-635 -636 0
-128 635 636 0
c gate 637 -634 636 0
-634 -637 0
636 -637 0
634 -636 637 0
c gate 638 -2 -126 0
-2 -638 0
-126 -638 0
2 126 638 0
c gate 639 -124 126 0
-124 -639 0
126 -639 0
124 -126 639 0
c gate 640 125 -639 0
125 -640 0
-639 -640 0
-125 639 640 0
c gate 641 -638 640 0
-638 -641 0
640 -641 0
638 -640 641 0
c gate 642 -125 473 0
-125 -642 0
473 -642 0
125 -473 642 0
c gate 643 -128 -642 0
-128 -643 0
-642 -643 0
128 642 643 0
c gate 644 -641 643 0
-641 -644 0
643 -644 0
641 -643 644 0
c gate 645 -127 -644 0
-127 -645 0
-644 -645 0
127 644 645 0
c gate 646 -637 645 0
-637 -646 0
645 -646 0
637 -645 646 0
c gate 647 -122 -126 0
-122 -647 0
-126 -647 0
122 126 647 0
c gate 648 -120 126 0
-120 -648 0
126 -648 0
120 -126 648 0
c gate 649 125 -648 0
125 -649 0
-648 -649 0
-125 648 649 0
c gate 650 -647 649 0
-647 -650 0
649 -650 0
647 -649 650 0
c gate 651 -125 485 0
-125 -651 0
485 -651 0
125 -485 651 0
c gate 652 -128 -651 0
-128 -652 0
-651 -652 0
128 651 652 0
c gate 653 -650 652 0
-650 -653 0
652 -653 0
650 -652 653 0
c gate 654 -113 126 0
-113 -654 0
126 -654 0
113 -126 654 0
c gate 655 -115 -126 0
-115 -655 0
-126 -655 0
115 126 655 0
c gate 656 -125 -655 0
-125 -656 0
-655 -656 0
125 655 656 0
c gate 657 -654 656 0
-654 -657 0
656 -657 0
654 -656 657 0
c gate 658 -112 126 0
-112 -658 0
126 -658 0
112 -126 658 0
c gate 659 -114 -126 0
-114 -659 0
-126 -659 0
114 126 659 0
c gate 660 125 -659 0
125 -660 0
-659 -660 0
-125 659 660 0
c gate 661 -658 660 0
-658 -661 0
660 -661 0
658 -660 661 0
c gate 662 128 -661 0
128 -662 0
-661 -662 0
-128 661 662 0
c gate 663 -657 662 0
-657 -663 0
662 -663 0
657 -662 663 0
c gate 664 127 -663 0
127 -664 0
-663 -664 0
-127 663 664 0
c gate 665 -653 664 0
-653 -665 0
664 -665 0
653 -664 665 0
c gate 666 -646 -665 0
-646 -666 0
-665 -666 0
646 665 666 0
c gate 667 -130 -666 0
-130 -667 0
-666 -667 0
130 666 667 0
c gate 668 129 -667 0
129 -668 0
-667 -668 0
-129 667 668 0
c gate 669 -630 668 0
-630 -669 0
668 -669 0
630 -668 669 0
c gate 670 131 669 0
131 -670 0
669 -670 0
-131 -669 670 0
c gate 671 125 160 0
125 -671 0
160 -671 0
-125 -160 671 0
c gate 672 -125 550 0
-125 -672 0
550 -672 0
125 -550 672 0
c gate 673 -128 -672 0
-128 -673 0
-672 -673 0
128 672 673 0
c gate 674 -671 673 0
-671 -674 0
673 -674 0
671 -673 674 0
c gate 675 125 301 0
125 -675 0
301 -675 0
-125 -301 675 0
c gate 676 -125 540 0
-125 -676 0
540 -676 0
125 -540 676 0
c gate 677 128 -676 0
128 -677 0
-676 -677 0
-128 676 677 0
c gate 678 -675 677 0
-675 -678 0
677 -678 0
675 -677 678 0
c gate 679 -674 -678 0
-674 -679 0
-678 -679 0
674 678 679 0
c gate 680 127 -679 0
127 -680 0
-679 -680 0
-127 679 680 0
c gate 681 125 138 0
125 -681 0
138 -681 0
-125 -138 681 0
c gate 682 -125 572 0
-125 -682 0
572 -682 0
125 -572 682 0
c gate 683 128 -682 0
128 -683 0
-682 -683 0
-128 682 683 0
c gate 684 -681 683 0
-681 -684 0
683 -684 0
681 -683 684 0
c gate 685 125 148 0
125 -685 0
148 -685 0
-125 -148 685 0
c gate 686 -125 562 0
-125 -686 0
562 -686 0
125 -562 686 0
c gate 687 -128 -686 0
-128 -687 0
-686 -687 0
128 686 687 0
c gate 688 -685 687 0
-685 -688 0
687 -688 0
685 -687 688 0
c gate 689 -684 -688 0
-684 -689 0
-688 -689 0
684 688 689 0
c gate 690 -127 -689 0
-127 -690 0
-689 -690 0
127 689 690 0
c gate 691 130 -690 0
130 -691 0
-690 -691 0
-130 690 691 0
c gate 692 -680 691 0
-680 -692 0
691 -692 0
680 -691 692 0
c gate 693 125 453 0
125 -693 0
453 -693 0
-125 -453 693 0
c gate 694 -103 -126 0
-103 -694 0
-126 -694 0
103 126 694 0
c gate 695 -101 126 0
-101 -695 0
126 -695 0
101 -126 695 0
c gate 696 -125 -695 0
-125 -696 0
-695 -696 0
125 695 696 0
c gate 697 -694 696 0
-694 -697 0
696 -697 0
694 -696 697 0
c gate 698 128 -697 0
128 -698 0
-697 -698 0
-128 697 698 0
c gate 699 -693 698 0
-693 -699 0
698 -699 0
693 -698 699 0
c gate 700 -109 126 0
-109 -700 0
126 -700 0
109 -126 700 0
c gate 701 -111 -126 0
-111 -701 0
-126 -701 0
111 126 701 0
c gate 702 -125 -701 0
-125 -702 0
-701 -702 0
125 701 702 0
c gate 703 -700 702 0
-700 -703 0
702 -703 0
700 -702 703 0
c gate 704 -108 126 0
-108 -704 0
126 -704 0
108 -126 704 0
c gate 705 -110 -126 0
-110 -705 0
-126 -705 0
110 126 705 0
c gate 706 125 -705 0
125 -706 0
-705 -706 0
-125 705 706 0
c gate 707 -704 706 0
-704 -707 0
706 -707 0
704 -706 707 0
c gate 708 -128 -707 0
-128 -708 0
-707 -708 0
128 707 708 0
c gate 709 -703 708 0
-703 -709 0
708 -709 0
703 -708 709 0
c gate 710 -127 -709 0
-127 -710 0
-709 -710 0
127 709 710 0
c gate 711 -699 710 0
-699 -711 0
710 -711 0
699 -710 711 0
c gate 712 125 421 0
125 -712 0
421 -712 0
-125 -421 712 0
c gate 713 -99 -126 0
-99 -713 0
-126 -713 0
99 126 713 0
c gate 714 -97 126 0
-97 -714 0
126 -714 0
97 -126 714 0
c gate 715 -125 -714 0
-125 -715 0
-714 -715 0
125 714 715 0
c gate 716 -713 715 0
-713 -716 0
715 -716 0
713 -715 716 0
c gate 717 128 -716 0
128 -717 0
-716 -717 0
-128 716 717 0
c gate 718 -712 717 0
-712 -718 0
717 -718 0
712 -717 718 0
c gate 719 -105 126 0
-105 -719 0
126 -719 0
105 -126 719 0
c gate 720 -107 -126 0
-107 -720 0
-126 -720 0
107 126 720 0
c gate 721 -125 -720 0
-125 -721 0
-720 -721 0
125 720 721 0
c gate 722 -719 721 0
-719 -722 0
721 -722 0
719 -721 722 0
c gate 723 -104 126 0
-104 -723 0
126 -723 0
104 -126 723 0
c gate 724 -106 -126 0
-106 -724 0
-126 -724 0
106 126 724 0
c gate 725 125 -724 0
125 -725 0
-724 -725 0
-125 724 725 0
c gate 726 -723 725 0
-723 -726 0
725 -726 0
723 -725 726 0
c gate 727 -128 -726 0
-128 -727 0
-726 -727 0
128 726 727 0
c gate 728 -722 727 0
-722 -728 0
727 -728 0
722 -727 728 0
c gate 729 127 -728 0
127 -729 0
-728 -729 0
-127 728 729 0
c gate 730 -718 729 0
-718 -730 0
729 -730 0
718 -729 730 0
c gate 731 -711 -730 0
-711 -731 0
-730 -731 0
711 730 731 0
c gate 732 -130 -731 0
-130 -732 0
-731 -732 0
130 731 732 0
c gate 733 129 -732 0
129 -733 0
-732 -733 0
-129 732 733 0
c gate 734 -692 733 0
-692 -734 0
733 -734 0
692 -733 734 0
c gate 735 131 734 0
131 -735 0
734 -735 0
-131 -734 735 0
c gate 736 -670 -735 0
-670 -736 0
-735 -736 0
670 735 736 0
c gate 737 -593 736 0
-593 -737 0
736 -737 0
593 -736 737 0
c gate 738 -509 737 0
-509 -738 0
737 -738 0
509 -737 738 0
c gate 739 -131 585 0
-131 -739 0
585 -739 0
131 -585 739 0
c gate 740 -321 -739 0
-321 -740 0
-739 -740 0
321 739 740 0
c gate 741 -738 740 0
-738 -741 0
740 -741 0
738 -740 741 0
c gate 742 -131 669 0
-131 -742 0
669 -742 0
131 -669 742 0
c gate 743 -131 734 0
-131 -743 0
734 -743 0
131 -734 743 0
c gate 744 -131 508 0
-131 -744 0
508 -744 0
131 -508 744 0
c gate 745 -743 -744 0
-743 -745 0
-744 -745 0
743 744 745 0
c gate 746 -742 745 0
-742 -746 0
745 -746 0
742 -745 746 0
c gate 747 -741 -746 0
-741 -747 0
-746 -747 0
741 746 747 0
c gate 748 414 747 0
414 -748 0
747 -748 0
-414 -747 748 0
c gate 749 -321 748 0
-321 -749 0
748 -749 0
321 -748 749 0
c PO
749 0
